<number of tasks>
50

<cycle time>
1000

<order strength>
0.197


<task times>
1 234
2 254
3 245
4 446
5 26
6 131
7 284
8 331
9 183
10 96
11 27
12 211
13 256
14 92
15 221
16 382
17 213
18 25
19 184
20 64
21 99
22 469
23 85
24 254
25 145
26 409
27 272
28 101
29 522
30 400
31 192
32 200
33 294
34 164
35 145
36 82
37 186
38 77
39 188
40 105
41 133
42 154
43 479
44 554
45 91
46 152
47 42
48 348
49 39
50 192

<precedence relations>
1,6
2,5
2,7
2,12
3,8
3,9
3,10
4,7
4,11
5,13
6,16
7,14
7,17
8,34
8,49
9,24
10,17
10,24
11,18
12,15
12,45
13,23
14,20
15,19
15,21
15,24
16,26
17,22
17,25
17,45
18,27
19,28
20,32
21,30
22,31
23,29
23,34
23,46
24,33
26,49
27,35
27,49
28,36
29,38
30,37
31,39
33,40
36,41
37,42
38,45
39,43
40,44
40,46
41,47
42,49
43,50
44,48
46,49

<end>
